/*********************************************
 * OPL 12.10.0.0 Data
 * Author: Kinast
 * Creation date: Aug 17, 2021 at 11:48:21 AM
 *********************************************/

 nOrders = 50;
 nTasks = 600;

 nWorkgroups = 10;
 nWorkstations = 50;

 nCobots = 0;
 cobotTimeFactor = 0.7;

 workstations = {
 	< 0, "Workstation 0", 0, 0.82, 0.96, 1, 1 >,
 	< 1, "Workstation 1", 1, 0.95, 1.14, 1, 1 >,
 	< 2, "Workstation 2", 2, 1.15, 1.1, 1, 1 >,
 	< 3, "Workstation 3", 3, 1.14, 0.75, 1, 4 >,
 	< 4, "Workstation 4", 4, 1.1, 1.15, 1, 3 >,
 	< 5, "Workstation 5", 1, 1.07, 0.78, 1, 4 >,
 	< 6, "Workstation 6", 3, 1.1, 0.98, 1, 2 >,
 	< 7, "Workstation 7", 0, 0.91, 0.85, 1, 1 >,
 	< 8, "Workstation 8", 5, 0.89, 0.97, 1, 3 >,
 	< 9, "Workstation 9", 2, 1.12, 1.01, 1, 1 >,
 	< 10, "Workstation 10", 3, 0.88, 0.89, 1, 5 >,
 	< 11, "Workstation 11", 5, 1.19, 0.86, 1, 1 >,
 	< 12, "Workstation 12", 6, 0.86, 0.94, 1, 2 >,
 	< 13, "Workstation 13", 7, 1.01, 1.2, 1, 4 >,
 	< 14, "Workstation 14", 4, 0.92, 1.13, 1, 5 >,
 	< 15, "Workstation 15", 3, 0.87, 0.79, 1, 1 >,
 	< 16, "Workstation 16", 2, 0.85, 1.12, 1, 3 >,
 	< 17, "Workstation 17", 8, 0.86, 0.94, 1, 2 >,
 	< 18, "Workstation 18", 6, 0.88, 1.24, 1, 1 >,
 	< 19, "Workstation 19", 8, 1.18, 1.09, 1, 1 >,
 	< 20, "Workstation 20", 8, 1.06, 0.97, 1, 1 >,
 	< 21, "Workstation 21", 6, 0.82, 0.77, 1, 5 >,
 	< 22, "Workstation 22", 8, 0.82, 0.98, 1, 1 >,
 	< 23, "Workstation 23", 6, 0.97, 0.83, 1, 3 >,
 	< 24, "Workstation 24", 0, 0.87, 1.09, 1, 4 >,
 	< 25, "Workstation 25", 1, 1.22, 0.88, 1, 3 >,
 	< 26, "Workstation 26", 0, 1.18, 1.01, 1, 5 >,
 	< 27, "Workstation 27", 9, 0.87, 1.24, 1, 5 >,
 	< 28, "Workstation 28", 7, 1.09, 0.87, 1, 3 >,
 	< 29, "Workstation 29", 6, 1, 0.82, 1, 3 >,
 	< 30, "Workstation 30", 2, 1.06, 0.8, 1, 2 >,
 	< 31, "Workstation 31", 5, 0.89, 1, 1, 4 >,
 	< 32, "Workstation 32", 9, 1.18, 1.08, 1, 5 >,
 	< 33, "Workstation 33", 1, 1.02, 0.76, 1, 1 >,
 	< 34, "Workstation 34", 4, 0.99, 1.05, 1, 1 >,
 	< 35, "Workstation 35", 3, 1.2, 0.9, 1, 5 >,
 	< 36, "Workstation 36", 7, 0.79, 0.91, 1, 1 >,
 	< 37, "Workstation 37", 4, 0.94, 1, 1, 1 >,
 	< 38, "Workstation 38", 4, 1.18, 0.99, 1, 1 >,
 	< 39, "Workstation 39", 8, 0.85, 0.94, 1, 1 >,
 	< 40, "Workstation 40", 1, 1.08, 0.95, 1, 4 >,
 	< 41, "Workstation 41", 9, 0.92, 1.2, 1, 1 >,
 	< 42, "Workstation 42", 0, 1.06, 0.75, 1, 1 >,
 	< 43, "Workstation 43", 7, 1.22, 0.81, 1, 1 >,
 	< 44, "Workstation 44", 9, 0.79, 0.78, 1, 5 >,
 	< 45, "Workstation 45", 7, 0.93, 1.01, 1, 1 >,
 	< 46, "Workstation 46", 5, 1.05, 1.06, 1, 1 >,
 	< 47, "Workstation 47", 9, 0.8, 1.08, 1, 4 >,
 	< 48, "Workstation 48", 5, 0.94, 0.8, 1, 1 >,
 	< 49, "Workstation 49", 2, 1, 1.03, 1, 1 >
 };

 tasks = {
 	// order 0
 	< 0, 0, 10, 51, 64, 110, 1, -1 >,
 	< 1, 0, 3, 38, 32, 122, 2, 0 >,
 	< 2, 0, 3, 49, 0, 158, 5, 1 >,
 	< 3, 0, 4, 0, 85, 184, 4, 2 >,
 	< 4, 0, 3, 0, 0, 108, 9, 3 >,
 	< 5, 0, 9, 0, 0, 105, 6, 4 >,
 	< 6, 0, 6, 0, 82, 118, 0, 5 >,
 	< 7, 0, 7, 0, 40, 174, 8, 6 >,
 	< 8, 0, 1, 41, 0, 163, 3, 7 >,
 	< 9, 0, 3, 46, 0, 146, 7, 8 >,
 	< 10, 0, 1, 0, 75, 170, 1, 9 >,
 	< 11, 0, 2, 43, 58, 122, 2, 10 >,
 	// order 1
 	< 12, 1, 9, 35, 0, 101, 5, -1 >,
 	< 13, 1, 7, 0, 73, 105, 4, 12 >,
 	< 14, 1, 10, 0, 65, 188, 9, 13 >,
 	< 15, 1, 7, 64, 56, 165, 6, 14 >,
 	< 16, 1, 10, 32, 0, 107, 0, 15 >,
 	< 17, 1, 10, 0, 0, 195, 8, 16 >,
 	< 18, 1, 1, 83, 46, 126, 3, 17 >,
 	< 19, 1, 1, 0, 75, 123, 7, 18 >,
 	< 20, 1, 6, 58, 0, 106, 1, 19 >,
 	< 21, 1, 3, 0, 61, 179, 2, 20 >,
 	< 22, 1, 8, 0, 0, 158, 5, 21 >,
 	< 23, 1, 10, 32, 96, 169, 4, 22 >,
 	// order 2
 	< 24, 2, 5, 78, 0, 115, 9, -1 >,
 	< 25, 2, 5, 0, 0, 161, 6, 24 >,
 	< 26, 2, 6, 91, 0, 113, 0, 25 >,
 	< 27, 2, 2, 0, 0, 196, 8, 26 >,
 	< 28, 2, 3, 87, 0, 161, 3, 27 >,
 	< 29, 2, 2, 0, 81, 194, 7, 28 >,
 	< 30, 2, 3, 0, 0, 113, 1, 29 >,
 	< 31, 2, 7, 86, 41, 138, 2, 30 >,
 	< 32, 2, 10, 33, 45, 186, 5, 31 >,
 	< 33, 2, 10, 90, 61, 187, 4, 32 >,
 	< 34, 2, 5, 0, 37, 188, 9, 33 >,
 	< 35, 2, 3, 0, 79, 141, 6, 34 >,
 	// order 3
 	< 36, 3, 8, 0, 43, 154, 0, -1 >,
 	< 37, 3, 8, 0, 0, 134, 8, 36 >,
 	< 38, 3, 3, 31, 0, 162, 3, 37 >,
 	< 39, 3, 8, 99, 46, 147, 7, 38 >,
 	< 40, 3, 9, 64, 0, 198, 1, 39 >,
 	< 41, 3, 10, 0, 35, 156, 2, 40 >,
 	< 42, 3, 9, 78, 95, 179, 5, 41 >,
 	< 43, 3, 9, 0, 0, 120, 4, 42 >,
 	< 44, 3, 7, 69, 0, 196, 9, 43 >,
 	< 45, 3, 5, 0, 0, 131, 6, 44 >,
 	< 46, 3, 10, 0, 0, 128, 0, 45 >,
 	< 47, 3, 3, 92, 69, 121, 8, 46 >,
 	// order 4
 	< 48, 4, 6, 0, 40, 178, 3, -1 >,
 	< 49, 4, 5, 0, 0, 152, 7, 48 >,
 	< 50, 4, 7, 0, 0, 196, 1, 49 >,
 	< 51, 4, 5, 0, 48, 126, 2, 50 >,
 	< 52, 4, 4, 0, 96, 139, 5, 51 >,
 	< 53, 4, 3, 0, 0, 153, 4, 52 >,
 	< 54, 4, 4, 0, 33, 101, 9, 53 >,
 	< 55, 4, 4, 84, 33, 148, 6, 54 >,
 	< 56, 4, 8, 78, 0, 153, 0, 55 >,
 	< 57, 4, 4, 0, 51, 187, 8, 56 >,
 	< 58, 4, 3, 0, 0, 162, 3, 57 >,
 	< 59, 4, 5, 0, 74, 189, 7, 58 >,
 	// order 5
 	< 60, 5, 4, 64, 94, 188, 1, -1 >,
 	< 61, 5, 6, 100, 39, 166, 2, 60 >,
 	< 62, 5, 1, 85, 0, 160, 5, 61 >,
 	< 63, 5, 8, 0, 0, 102, 4, 62 >,
 	< 64, 5, 10, 0, 77, 110, 9, 63 >,
 	< 65, 5, 1, 60, 45, 115, 6, 64 >,
 	< 66, 5, 2, 0, 65, 130, 0, 65 >,
 	< 67, 5, 8, 44, 80, 131, 8, 66 >,
 	< 68, 5, 2, 0, 0, 115, 3, 67 >,
 	< 69, 5, 7, 0, 0, 186, 7, 68 >,
 	< 70, 5, 4, 0, 0, 186, 1, 69 >,
 	< 71, 5, 4, 64, 0, 180, 2, 70 >,
 	// order 6
 	< 72, 6, 9, 45, 0, 153, 5, -1 >,
 	< 73, 6, 10, 33, 0, 128, 4, 72 >,
 	< 74, 6, 2, 30, 0, 141, 9, 73 >,
 	< 75, 6, 4, 45, 63, 196, 6, 74 >,
 	< 76, 6, 4, 0, 0, 170, 0, 75 >,
 	< 77, 6, 10, 94, 0, 132, 8, 76 >,
 	< 78, 6, 9, 67, 56, 118, 3, 77 >,
 	< 79, 6, 5, 70, 0, 168, 7, 78 >,
 	< 80, 6, 2, 45, 33, 132, 1, 79 >,
 	< 81, 6, 10, 68, 62, 166, 2, 80 >,
 	< 82, 6, 8, 62, 95, 175, 5, 81 >,
 	< 83, 6, 7, 0, 90, 172, 4, 82 >,
 	// order 7
 	< 84, 7, 5, 0, 0, 102, 9, -1 >,
 	< 85, 7, 9, 0, 84, 164, 6, 84 >,
 	< 86, 7, 7, 90, 31, 136, 0, 85 >,
 	< 87, 7, 7, 33, 0, 165, 8, 86 >,
 	< 88, 7, 6, 0, 0, 174, 3, 87 >,
 	< 89, 7, 2, 73, 39, 195, 7, 88 >,
 	< 90, 7, 2, 0, 0, 191, 1, 89 >,
 	< 91, 7, 8, 85, 0, 102, 2, 90 >,
 	< 92, 7, 6, 99, 30, 100, 5, 91 >,
 	< 93, 7, 1, 69, 37, 103, 4, 92 >,
 	< 94, 7, 10, 44, 0, 108, 9, 93 >,
 	< 95, 7, 3, 93, 73, 123, 6, 94 >,
 	// order 8
 	< 96, 8, 7, 65, 72, 184, 0, -1 >,
 	< 97, 8, 3, 90, 0, 101, 8, 96 >,
 	< 98, 8, 6, 72, 41, 173, 3, 97 >,
 	< 99, 8, 2, 0, 0, 102, 7, 98 >,
 	< 100, 8, 1, 42, 32, 177, 1, 99 >,
 	< 101, 8, 7, 0, 0, 139, 2, 100 >,
 	< 102, 8, 1, 65, 0, 113, 5, 101 >,
 	< 103, 8, 6, 0, 0, 188, 4, 102 >,
 	< 104, 8, 3, 47, 98, 100, 9, 103 >,
 	< 105, 8, 3, 67, 0, 181, 6, 104 >,
 	< 106, 8, 8, 69, 0, 161, 0, 105 >,
 	< 107, 8, 8, 0, 0, 156, 8, 106 >,
 	// order 9
 	< 108, 9, 1, 60, 93, 198, 3, -1 >,
 	< 109, 9, 6, 0, 0, 142, 7, 108 >,
 	< 110, 9, 7, 0, 52, 176, 1, 109 >,
 	< 111, 9, 3, 41, 0, 155, 2, 110 >,
 	< 112, 9, 8, 0, 0, 131, 5, 111 >,
 	< 113, 9, 5, 48, 0, 129, 4, 112 >,
 	< 114, 9, 8, 0, 0, 113, 9, 113 >,
 	< 115, 9, 9, 80, 0, 164, 6, 114 >,
 	< 116, 9, 9, 64, 49, 111, 0, 115 >,
 	< 117, 9, 5, 0, 0, 146, 8, 116 >,
 	< 118, 9, 8, 89, 37, 161, 3, 117 >,
 	< 119, 9, 9, 60, 0, 117, 7, 118 >,
 	// order 10
 	< 120, 10, 3, 37, 0, 154, 1, -1 >,
 	< 121, 10, 1, 0, 0, 188, 2, 120 >,
 	< 122, 10, 6, 0, 40, 132, 5, 121 >,
 	< 123, 10, 3, 0, 98, 102, 4, 122 >,
 	< 124, 10, 10, 0, 86, 162, 9, 123 >,
 	< 125, 10, 4, 82, 0, 153, 6, 124 >,
 	< 126, 10, 1, 50, 0, 146, 0, 125 >,
 	< 127, 10, 6, 0, 0, 177, 8, 126 >,
 	< 128, 10, 8, 0, 34, 117, 3, 127 >,
 	< 129, 10, 10, 34, 50, 189, 7, 128 >,
 	< 130, 10, 6, 92, 0, 120, 1, 129 >,
 	< 131, 10, 1, 94, 0, 178, 2, 130 >,
 	// order 11
 	< 132, 11, 7, 0, 0, 178, 5, -1 >,
 	< 133, 11, 9, 84, 78, 175, 4, 132 >,
 	< 134, 11, 10, 36, 0, 198, 9, 133 >,
 	< 135, 11, 10, 0, 0, 185, 6, 134 >,
 	< 136, 11, 9, 0, 0, 144, 0, 135 >,
 	< 137, 11, 2, 34, 0, 188, 8, 136 >,
 	< 138, 11, 1, 0, 56, 189, 3, 137 >,
 	< 139, 11, 10, 0, 71, 128, 7, 138 >,
 	< 140, 11, 4, 0, 58, 101, 1, 139 >,
 	< 141, 11, 6, 89, 76, 143, 2, 140 >,
 	< 142, 11, 3, 0, 0, 106, 5, 141 >,
 	< 143, 11, 7, 61, 42, 178, 4, 142 >,
 	// order 12
 	< 144, 12, 8, 0, 74, 131, 9, -1 >,
 	< 145, 12, 9, 87, 0, 114, 6, 144 >,
 	< 146, 12, 3, 0, 35, 145, 0, 145 >,
 	< 147, 12, 9, 43, 47, 116, 8, 146 >,
 	< 148, 12, 2, 0, 0, 179, 3, 147 >,
 	< 149, 12, 3, 51, 0, 148, 7, 148 >,
 	< 150, 12, 7, 58, 67, 194, 1, 149 >,
 	< 151, 12, 2, 79, 58, 102, 2, 150 >,
 	< 152, 12, 8, 41, 55, 121, 5, 151 >,
 	< 153, 12, 7, 75, 0, 200, 4, 152 >,
 	< 154, 12, 10, 72, 0, 144, 9, 153 >,
 	< 155, 12, 9, 0, 0, 125, 6, 154 >,
 	// order 13
 	< 156, 13, 6, 66, 0, 198, 0, -1 >,
 	< 157, 13, 3, 66, 36, 148, 8, 156 >,
 	< 158, 13, 3, 40, 0, 192, 3, 157 >,
 	< 159, 13, 3, 95, 0, 169, 7, 158 >,
 	< 160, 13, 6, 56, 63, 190, 1, 159 >,
 	< 161, 13, 10, 77, 77, 137, 2, 160 >,
 	< 162, 13, 2, 0, 0, 200, 5, 161 >,
 	< 163, 13, 8, 39, 37, 198, 4, 162 >,
 	< 164, 13, 6, 83, 0, 147, 9, 163 >,
 	< 165, 13, 2, 0, 0, 191, 6, 164 >,
 	< 166, 13, 2, 70, 0, 179, 0, 165 >,
 	< 167, 13, 2, 65, 0, 162, 8, 166 >,
 	// order 14
 	< 168, 14, 7, 0, 0, 182, 3, -1 >,
 	< 169, 14, 9, 76, 0, 193, 7, 168 >,
 	< 170, 14, 6, 0, 80, 158, 1, 169 >,
 	< 171, 14, 6, 0, 34, 139, 2, 170 >,
 	< 172, 14, 5, 84, 33, 155, 5, 171 >,
 	< 173, 14, 5, 64, 0, 186, 4, 172 >,
 	< 174, 14, 1, 0, 33, 149, 9, 173 >,
 	< 175, 14, 9, 0, 93, 138, 6, 174 >,
 	< 176, 14, 9, 43, 91, 134, 0, 175 >,
 	< 177, 14, 3, 61, 68, 156, 8, 176 >,
 	< 178, 14, 2, 90, 71, 108, 3, 177 >,
 	< 179, 14, 3, 0, 0, 118, 7, 178 >,
 	// order 15
 	< 180, 15, 10, 0, 0, 165, 1, -1 >,
 	< 181, 15, 10, 36, 90, 164, 2, 180 >,
 	< 182, 15, 2, 0, 90, 158, 5, 181 >,
 	< 183, 15, 10, 0, 0, 123, 4, 182 >,
 	< 184, 15, 6, 0, 51, 154, 9, 183 >,
 	< 185, 15, 3, 43, 50, 134, 6, 184 >,
 	< 186, 15, 7, 0, 0, 163, 0, 185 >,
 	< 187, 15, 10, 0, 0, 122, 8, 186 >,
 	< 188, 15, 4, 93, 76, 191, 3, 187 >,
 	< 189, 15, 4, 0, 0, 100, 7, 188 >,
 	< 190, 15, 3, 93, 0, 118, 1, 189 >,
 	< 191, 15, 6, 0, 0, 177, 2, 190 >,
 	// order 16
 	< 192, 16, 10, 0, 0, 148, 5, -1 >,
 	< 193, 16, 5, 0, 97, 169, 4, 192 >,
 	< 194, 16, 8, 90, 0, 184, 9, 193 >,
 	< 195, 16, 10, 79, 49, 120, 6, 194 >,
 	< 196, 16, 5, 0, 0, 164, 0, 195 >,
 	< 197, 16, 2, 0, 61, 162, 8, 196 >,
 	< 198, 16, 3, 64, 55, 115, 3, 197 >,
 	< 199, 16, 9, 0, 0, 145, 7, 198 >,
 	< 200, 16, 4, 0, 79, 136, 1, 199 >,
 	< 201, 16, 3, 0, 87, 193, 2, 200 >,
 	< 202, 16, 3, 0, 92, 186, 5, 201 >,
 	< 203, 16, 4, 41, 0, 129, 4, 202 >,
 	// order 17
 	< 204, 17, 1, 34, 0, 139, 9, -1 >,
 	< 205, 17, 1, 94, 0, 169, 6, 204 >,
 	< 206, 17, 2, 0, 48, 192, 0, 205 >,
 	< 207, 17, 1, 0, 0, 184, 8, 206 >,
 	< 208, 17, 4, 0, 88, 152, 3, 207 >,
 	< 209, 17, 4, 95, 36, 200, 7, 208 >,
 	< 210, 17, 4, 95, 56, 159, 1, 209 >,
 	< 211, 17, 1, 51, 0, 178, 2, 210 >,
 	< 212, 17, 3, 39, 82, 186, 5, 211 >,
 	< 213, 17, 6, 86, 54, 133, 4, 212 >,
 	< 214, 17, 1, 0, 0, 196, 9, 213 >,
 	< 215, 17, 6, 71, 0, 191, 6, 214 >,
 	// order 18
 	< 216, 18, 9, 0, 0, 141, 0, -1 >,
 	< 217, 18, 6, 92, 0, 200, 8, 216 >,
 	< 218, 18, 9, 0, 0, 156, 3, 217 >,
 	< 219, 18, 8, 78, 76, 195, 7, 218 >,
 	< 220, 18, 4, 51, 0, 100, 1, 219 >,
 	< 221, 18, 4, 65, 75, 153, 2, 220 >,
 	< 222, 18, 7, 48, 59, 161, 5, 221 >,
 	< 223, 18, 8, 0, 0, 200, 4, 222 >,
 	< 224, 18, 7, 86, 0, 120, 9, 223 >,
 	< 225, 18, 9, 63, 48, 184, 6, 224 >,
 	< 226, 18, 3, 82, 0, 153, 0, 225 >,
 	< 227, 18, 1, 0, 0, 174, 8, 226 >,
 	// order 19
 	< 228, 19, 4, 78, 0, 113, 3, -1 >,
 	< 229, 19, 5, 0, 56, 125, 7, 228 >,
 	< 230, 19, 9, 0, 0, 195, 1, 229 >,
 	< 231, 19, 7, 0, 0, 199, 2, 230 >,
 	< 232, 19, 8, 53, 0, 124, 5, 231 >,
 	< 233, 19, 4, 58, 0, 153, 4, 232 >,
 	< 234, 19, 7, 71, 0, 136, 9, 233 >,
 	< 235, 19, 5, 79, 54, 196, 6, 234 >,
 	< 236, 19, 8, 88, 0, 138, 0, 235 >,
 	< 237, 19, 4, 86, 35, 126, 8, 236 >,
 	< 238, 19, 1, 0, 67, 140, 3, 237 >,
 	< 239, 19, 4, 52, 82, 137, 7, 238 >,
 	// order 20
 	< 240, 20, 7, 0, 0, 167, 1, -1 >,
 	< 241, 20, 5, 35, 0, 197, 2, 240 >,
 	< 242, 20, 1, 0, 0, 101, 5, 241 >,
 	< 243, 20, 9, 95, 30, 116, 4, 242 >,
 	< 244, 20, 6, 0, 0, 135, 9, 243 >,
 	< 245, 20, 9, 95, 31, 130, 6, 244 >,
 	< 246, 20, 10, 71, 0, 141, 0, 245 >,
 	< 247, 20, 10, 73, 97, 160, 8, 246 >,
 	< 248, 20, 8, 0, 0, 120, 3, 247 >,
 	< 249, 20, 9, 66, 92, 140, 7, 248 >,
 	< 250, 20, 9, 0, 40, 100, 1, 249 >,
 	< 251, 20, 3, 74, 0, 150, 2, 250 >,
 	// order 21
 	< 252, 21, 1, 0, 0, 102, 5, -1 >,
 	< 253, 21, 5, 88, 96, 178, 4, 252 >,
 	< 254, 21, 4, 0, 0, 157, 9, 253 >,
 	< 255, 21, 9, 55, 0, 199, 6, 254 >,
 	< 256, 21, 6, 0, 0, 114, 0, 255 >,
 	< 257, 21, 9, 0, 0, 200, 8, 256 >,
 	< 258, 21, 1, 0, 31, 199, 3, 257 >,
 	< 259, 21, 6, 0, 77, 139, 7, 258 >,
 	< 260, 21, 1, 51, 0, 191, 1, 259 >,
 	< 261, 21, 8, 0, 0, 173, 2, 260 >,
 	< 262, 21, 3, 0, 0, 103, 5, 261 >,
 	< 263, 21, 9, 75, 35, 190, 4, 262 >,
 	// order 22
 	< 264, 22, 10, 0, 37, 158, 9, -1 >,
 	< 265, 22, 8, 0, 0, 175, 6, 264 >,
 	< 266, 22, 4, 73, 0, 120, 0, 265 >,
 	< 267, 22, 6, 0, 0, 168, 8, 266 >,
 	< 268, 22, 4, 64, 0, 181, 3, 267 >,
 	< 269, 22, 4, 0, 86, 136, 7, 268 >,
 	< 270, 22, 9, 0, 0, 100, 1, 269 >,
 	< 271, 22, 4, 83, 0, 111, 2, 270 >,
 	< 272, 22, 7, 59, 65, 135, 5, 271 >,
 	< 273, 22, 8, 0, 97, 107, 4, 272 >,
 	< 274, 22, 5, 44, 44, 158, 9, 273 >,
 	< 275, 22, 5, 51, 33, 160, 6, 274 >,
 	// order 23
 	< 276, 23, 10, 55, 0, 198, 0, -1 >,
 	< 277, 23, 6, 0, 0, 144, 8, 276 >,
 	< 278, 23, 3, 0, 97, 195, 3, 277 >,
 	< 279, 23, 9, 78, 0, 117, 7, 278 >,
 	< 280, 23, 5, 0, 94, 125, 1, 279 >,
 	< 281, 23, 3, 0, 85, 120, 2, 280 >,
 	< 282, 23, 9, 64, 38, 146, 5, 281 >,
 	< 283, 23, 9, 0, 0, 180, 4, 282 >,
 	< 284, 23, 6, 0, 0, 164, 9, 283 >,
 	< 285, 23, 2, 0, 0, 100, 6, 284 >,
 	< 286, 23, 3, 59, 0, 126, 0, 285 >,
 	< 287, 23, 5, 71, 0, 194, 8, 286 >,
 	// order 24
 	< 288, 24, 1, 0, 84, 146, 3, -1 >,
 	< 289, 24, 3, 50, 36, 183, 7, 288 >,
 	< 290, 24, 5, 89, 46, 159, 1, 289 >,
 	< 291, 24, 1, 35, 88, 176, 2, 290 >,
 	< 292, 24, 4, 31, 78, 173, 5, 291 >,
 	< 293, 24, 1, 68, 0, 192, 4, 292 >,
 	< 294, 24, 1, 45, 97, 124, 9, 293 >,
 	< 295, 24, 1, 83, 0, 117, 6, 294 >,
 	< 296, 24, 8, 70, 32, 188, 0, 295 >,
 	< 297, 24, 7, 0, 0, 122, 8, 296 >,
 	< 298, 24, 3, 0, 0, 121, 3, 297 >,
 	< 299, 24, 5, 0, 69, 166, 7, 298 >,
 	// order 25
 	< 300, 25, 2, 0, 0, 103, 1, -1 >,
 	< 301, 25, 8, 31, 34, 129, 2, 300 >,
 	< 302, 25, 1, 34, 0, 121, 5, 301 >,
 	< 303, 25, 8, 0, 0, 110, 4, 302 >,
 	< 304, 25, 7, 0, 0, 150, 9, 303 >,
 	< 305, 25, 1, 84, 30, 161, 6, 304 >,
 	< 306, 25, 6, 43, 0, 109, 0, 305 >,
 	< 307, 25, 3, 64, 85, 195, 8, 306 >,
 	< 308, 25, 1, 0, 83, 116, 3, 307 >,
 	< 309, 25, 4, 0, 100, 143, 7, 308 >,
 	< 310, 25, 3, 0, 91, 151, 1, 309 >,
 	< 311, 25, 8, 47, 0, 101, 2, 310 >,
 	// order 26
 	< 312, 26, 10, 0, 0, 156, 5, -1 >,
 	< 313, 26, 6, 65, 33, 132, 4, 312 >,
 	< 314, 26, 4, 0, 0, 116, 9, 313 >,
 	< 315, 26, 7, 0, 82, 188, 6, 314 >,
 	< 316, 26, 4, 83, 0, 117, 0, 315 >,
 	< 317, 26, 3, 59, 0, 158, 8, 316 >,
 	< 318, 26, 6, 0, 0, 144, 3, 317 >,
 	< 319, 26, 8, 0, 0, 197, 7, 318 >,
 	< 320, 26, 1, 0, 0, 190, 1, 319 >,
 	< 321, 26, 3, 77, 0, 183, 2, 320 >,
 	< 322, 26, 8, 42, 0, 199, 5, 321 >,
 	< 323, 26, 1, 0, 0, 146, 4, 322 >,
 	// order 27
 	< 324, 27, 2, 98, 0, 195, 9, -1 >,
 	< 325, 27, 5, 0, 0, 152, 6, 324 >,
 	< 326, 27, 3, 0, 79, 115, 0, 325 >,
 	< 327, 27, 7, 0, 63, 153, 8, 326 >,
 	< 328, 27, 5, 0, 54, 105, 3, 327 >,
 	< 329, 27, 5, 86, 0, 109, 7, 328 >,
 	< 330, 27, 6, 0, 58, 129, 1, 329 >,
 	< 331, 27, 9, 0, 80, 132, 2, 330 >,
 	< 332, 27, 10, 91, 0, 146, 5, 331 >,
 	< 333, 27, 1, 35, 0, 149, 4, 332 >,
 	< 334, 27, 5, 0, 89, 164, 9, 333 >,
 	< 335, 27, 2, 0, 95, 187, 6, 334 >,
 	// order 28
 	< 336, 28, 2, 81, 0, 198, 0, -1 >,
 	< 337, 28, 2, 0, 58, 131, 8, 336 >,
 	< 338, 28, 7, 0, 0, 116, 3, 337 >,
 	< 339, 28, 6, 61, 0, 190, 7, 338 >,
 	< 340, 28, 10, 81, 0, 181, 1, 339 >,
 	< 341, 28, 7, 0, 0, 103, 2, 340 >,
 	< 342, 28, 8, 0, 57, 107, 5, 341 >,
 	< 343, 28, 9, 0, 0, 114, 4, 342 >,
 	< 344, 28, 6, 0, 0, 187, 9, 343 >,
 	< 345, 28, 3, 41, 54, 117, 6, 344 >,
 	< 346, 28, 5, 0, 0, 172, 0, 345 >,
 	< 347, 28, 9, 96, 0, 143, 8, 346 >,
 	// order 29
 	< 348, 29, 3, 73, 79, 115, 3, -1 >,
 	< 349, 29, 9, 0, 50, 200, 7, 348 >,
 	< 350, 29, 2, 47, 0, 187, 1, 349 >,
 	< 351, 29, 2, 38, 0, 105, 2, 350 >,
 	< 352, 29, 2, 53, 0, 106, 5, 351 >,
 	< 353, 29, 8, 59, 75, 114, 4, 352 >,
 	< 354, 29, 6, 34, 0, 197, 9, 353 >,
 	< 355, 29, 8, 80, 0, 139, 6, 354 >,
 	< 356, 29, 4, 55, 59, 100, 0, 355 >,
 	< 357, 29, 8, 80, 0, 181, 8, 356 >,
 	< 358, 29, 10, 0, 0, 193, 3, 357 >,
 	< 359, 29, 3, 0, 56, 116, 7, 358 >,
 	// order 30
 	< 360, 30, 9, 0, 90, 163, 1, -1 >,
 	< 361, 30, 3, 0, 0, 190, 2, 360 >,
 	< 362, 30, 4, 0, 0, 190, 5, 361 >,
 	< 363, 30, 7, 62, 43, 164, 4, 362 >,
 	< 364, 30, 8, 70, 0, 151, 9, 363 >,
 	< 365, 30, 4, 56, 51, 169, 6, 364 >,
 	< 366, 30, 3, 54, 0, 153, 0, 365 >,
 	< 367, 30, 4, 66, 0, 117, 8, 366 >,
 	< 368, 30, 9, 97, 0, 111, 3, 367 >,
 	< 369, 30, 5, 0, 51, 147, 7, 368 >,
 	< 370, 30, 4, 0, 71, 120, 1, 369 >,
 	< 371, 30, 3, 0, 0, 151, 2, 370 >,
 	// order 31
 	< 372, 31, 1, 45, 44, 106, 5, -1 >,
 	< 373, 31, 1, 0, 39, 148, 4, 372 >,
 	< 374, 31, 6, 0, 63, 196, 9, 373 >,
 	< 375, 31, 5, 75, 0, 193, 6, 374 >,
 	< 376, 31, 6, 76, 57, 198, 0, 375 >,
 	< 377, 31, 10, 35, 0, 127, 8, 376 >,
 	< 378, 31, 8, 54, 0, 161, 3, 377 >,
 	< 379, 31, 7, 51, 0, 134, 7, 378 >,
 	< 380, 31, 5, 88, 89, 146, 1, 379 >,
 	< 381, 31, 6, 84, 58, 173, 2, 380 >,
 	< 382, 31, 6, 0, 0, 156, 5, 381 >,
 	< 383, 31, 1, 36, 0, 131, 4, 382 >,
 	// order 32
 	< 384, 32, 6, 44, 63, 150, 9, -1 >,
 	< 385, 32, 2, 0, 91, 135, 6, 384 >,
 	< 386, 32, 4, 39, 0, 184, 0, 385 >,
 	< 387, 32, 10, 67, 0, 111, 8, 386 >,
 	< 388, 32, 4, 92, 0, 141, 3, 387 >,
 	< 389, 32, 10, 0, 0, 164, 7, 388 >,
 	< 390, 32, 10, 0, 32, 189, 1, 389 >,
 	< 391, 32, 7, 39, 0, 196, 2, 390 >,
 	< 392, 32, 4, 0, 0, 182, 5, 391 >,
 	< 393, 32, 1, 0, 50, 108, 4, 392 >,
 	< 394, 32, 8, 0, 0, 157, 9, 393 >,
 	< 395, 32, 7, 0, 0, 134, 6, 394 >,
 	// order 33
 	< 396, 33, 4, 34, 35, 130, 0, -1 >,
 	< 397, 33, 2, 39, 0, 156, 8, 396 >,
 	< 398, 33, 3, 0, 0, 179, 3, 397 >,
 	< 399, 33, 2, 36, 50, 174, 7, 398 >,
 	< 400, 33, 9, 59, 30, 132, 1, 399 >,
 	< 401, 33, 6, 75, 0, 184, 2, 400 >,
 	< 402, 33, 7, 0, 0, 141, 5, 401 >,
 	< 403, 33, 4, 0, 0, 200, 4, 402 >,
 	< 404, 33, 10, 94, 0, 144, 9, 403 >,
 	< 405, 33, 1, 65, 0, 107, 6, 404 >,
 	< 406, 33, 10, 56, 72, 150, 0, 405 >,
 	< 407, 33, 1, 99, 0, 198, 8, 406 >,
 	// order 34
 	< 408, 34, 6, 0, 0, 101, 3, -1 >,
 	< 409, 34, 8, 38, 56, 188, 7, 408 >,
 	< 410, 34, 2, 88, 0, 185, 1, 409 >,
 	< 411, 34, 10, 98, 56, 183, 2, 410 >,
 	< 412, 34, 3, 75, 62, 169, 5, 411 >,
 	< 413, 34, 8, 54, 57, 122, 4, 412 >,
 	< 414, 34, 1, 0, 59, 102, 9, 413 >,
 	< 415, 34, 8, 0, 69, 196, 6, 414 >,
 	< 416, 34, 3, 83, 69, 176, 0, 415 >,
 	< 417, 34, 6, 0, 57, 169, 8, 416 >,
 	< 418, 34, 2, 0, 90, 124, 3, 417 >,
 	< 419, 34, 3, 58, 0, 102, 7, 418 >,
 	// order 35
 	< 420, 35, 3, 71, 35, 121, 1, -1 >,
 	< 421, 35, 6, 47, 0, 185, 2, 420 >,
 	< 422, 35, 3, 0, 0, 185, 5, 421 >,
 	< 423, 35, 1, 39, 45, 188, 4, 422 >,
 	< 424, 35, 10, 67, 97, 198, 9, 423 >,
 	< 425, 35, 6, 62, 38, 141, 6, 424 >,
 	< 426, 35, 10, 100, 0, 174, 0, 425 >,
 	< 427, 35, 5, 35, 60, 124, 8, 426 >,
 	< 428, 35, 9, 38, 0, 200, 3, 427 >,
 	< 429, 35, 3, 0, 60, 194, 7, 428 >,
 	< 430, 35, 2, 0, 34, 194, 1, 429 >,
 	< 431, 35, 2, 0, 86, 180, 2, 430 >,
 	// order 36
 	< 432, 36, 7, 90, 0, 141, 5, -1 >,
 	< 433, 36, 9, 41, 59, 114, 4, 432 >,
 	< 434, 36, 10, 84, 30, 183, 9, 433 >,
 	< 435, 36, 8, 70, 0, 172, 6, 434 >,
 	< 436, 36, 7, 0, 83, 118, 0, 435 >,
 	< 437, 36, 1, 56, 0, 114, 8, 436 >,
 	< 438, 36, 1, 71, 0, 101, 3, 437 >,
 	< 439, 36, 8, 39, 0, 119, 7, 438 >,
 	< 440, 36, 2, 0, 40, 168, 1, 439 >,
 	< 441, 36, 1, 0, 51, 151, 2, 440 >,
 	< 442, 36, 4, 0, 96, 103, 5, 441 >,
 	< 443, 36, 4, 77, 84, 136, 4, 442 >,
 	// order 37
 	< 444, 37, 3, 0, 0, 190, 9, -1 >,
 	< 445, 37, 10, 0, 100, 102, 6, 444 >,
 	< 446, 37, 9, 0, 0, 191, 0, 445 >,
 	< 447, 37, 6, 78, 34, 113, 8, 446 >,
 	< 448, 37, 8, 34, 85, 188, 3, 447 >,
 	< 449, 37, 10, 35, 48, 118, 7, 448 >,
 	< 450, 37, 5, 88, 96, 179, 1, 449 >,
 	< 451, 37, 3, 91, 96, 127, 2, 450 >,
 	< 452, 37, 7, 100, 56, 138, 5, 451 >,
 	< 453, 37, 7, 72, 33, 148, 4, 452 >,
 	< 454, 37, 3, 0, 0, 102, 9, 453 >,
 	< 455, 37, 10, 64, 0, 177, 6, 454 >,
 	// order 38
 	< 456, 38, 7, 75, 0, 168, 0, -1 >,
 	< 457, 38, 8, 56, 0, 126, 8, 456 >,
 	< 458, 38, 10, 86, 0, 186, 3, 457 >,
 	< 459, 38, 9, 0, 0, 170, 7, 458 >,
 	< 460, 38, 10, 0, 95, 153, 1, 459 >,
 	< 461, 38, 4, 75, 46, 178, 2, 460 >,
 	< 462, 38, 4, 0, 65, 197, 5, 461 >,
 	< 463, 38, 10, 0, 79, 165, 4, 462 >,
 	< 464, 38, 8, 50, 0, 113, 9, 463 >,
 	< 465, 38, 6, 0, 0, 136, 6, 464 >,
 	< 466, 38, 2, 48, 59, 141, 0, 465 >,
 	< 467, 38, 1, 0, 0, 173, 8, 466 >,
 	// order 39
 	< 468, 39, 10, 0, 0, 114, 3, -1 >,
 	< 469, 39, 6, 71, 0, 130, 7, 468 >,
 	< 470, 39, 2, 67, 0, 157, 1, 469 >,
 	< 471, 39, 1, 0, 51, 166, 2, 470 >,
 	< 472, 39, 4, 50, 44, 109, 5, 471 >,
 	< 473, 39, 10, 0, 41, 109, 4, 472 >,
 	< 474, 39, 9, 47, 80, 156, 9, 473 >,
 	< 475, 39, 5, 0, 54, 155, 6, 474 >,
 	< 476, 39, 2, 0, 62, 162, 0, 475 >,
 	< 477, 39, 5, 82, 0, 157, 8, 476 >,
 	< 478, 39, 8, 0, 93, 172, 3, 477 >,
 	< 479, 39, 6, 0, 0, 161, 7, 478 >,
 	// order 40
 	< 480, 40, 9, 0, 0, 120, 1, -1 >,
 	< 481, 40, 4, 0, 0, 142, 2, 480 >,
 	< 482, 40, 9, 0, 62, 154, 5, 481 >,
 	< 483, 40, 4, 77, 0, 158, 4, 482 >,
 	< 484, 40, 8, 0, 0, 139, 9, 483 >,
 	< 485, 40, 9, 67, 0, 151, 6, 484 >,
 	< 486, 40, 6, 0, 100, 133, 0, 485 >,
 	< 487, 40, 4, 0, 65, 194, 8, 486 >,
 	< 488, 40, 9, 61, 0, 101, 3, 487 >,
 	< 489, 40, 9, 0, 38, 125, 7, 488 >,
 	< 490, 40, 1, 46, 100, 138, 1, 489 >,
 	< 491, 40, 6, 0, 0, 124, 2, 490 >,
 	// order 41
 	< 492, 41, 4, 46, 0, 175, 5, -1 >,
 	< 493, 41, 4, 65, 0, 111, 4, 492 >,
 	< 494, 41, 4, 54, 50, 196, 9, 493 >,
 	< 495, 41, 3, 0, 0, 157, 6, 494 >,
 	< 496, 41, 6, 0, 0, 183, 0, 495 >,
 	< 497, 41, 5, 91, 0, 200, 8, 496 >,
 	< 498, 41, 10, 31, 0, 125, 3, 497 >,
 	< 499, 41, 7, 0, 0, 196, 7, 498 >,
 	< 500, 41, 6, 97, 46, 200, 1, 499 >,
 	< 501, 41, 9, 0, 65, 124, 2, 500 >,
 	< 502, 41, 1, 0, 0, 167, 5, 501 >,
 	< 503, 41, 9, 31, 0, 141, 4, 502 >,
 	// order 42
 	< 504, 42, 1, 0, 0, 141, 9, -1 >,
 	< 505, 42, 6, 0, 0, 137, 6, 504 >,
 	< 506, 42, 8, 0, 0, 106, 0, 505 >,
 	< 507, 42, 6, 0, 85, 162, 8, 506 >,
 	< 508, 42, 9, 0, 0, 196, 3, 507 >,
 	< 509, 42, 2, 0, 0, 121, 7, 508 >,
 	< 510, 42, 10, 55, 0, 118, 1, 509 >,
 	< 511, 42, 6, 97, 93, 149, 2, 510 >,
 	< 512, 42, 3, 46, 76, 150, 5, 511 >,
 	< 513, 42, 6, 0, 0, 117, 4, 512 >,
 	< 514, 42, 5, 90, 48, 187, 9, 513 >,
 	< 515, 42, 10, 62, 98, 109, 6, 514 >,
 	// order 43
 	< 516, 43, 2, 67, 30, 155, 0, -1 >,
 	< 517, 43, 6, 38, 62, 107, 8, 516 >,
 	< 518, 43, 6, 0, 48, 176, 3, 517 >,
 	< 519, 43, 5, 78, 32, 150, 7, 518 >,
 	< 520, 43, 2, 63, 79, 166, 1, 519 >,
 	< 521, 43, 1, 98, 39, 135, 2, 520 >,
 	< 522, 43, 7, 0, 64, 200, 5, 521 >,
 	< 523, 43, 10, 34, 50, 178, 4, 522 >,
 	< 524, 43, 4, 0, 0, 168, 9, 523 >,
 	< 525, 43, 2, 0, 0, 127, 6, 524 >,
 	< 526, 43, 2, 0, 0, 139, 0, 525 >,
 	< 527, 43, 5, 74, 90, 102, 8, 526 >,
 	// order 44
 	< 528, 44, 2, 0, 59, 173, 3, -1 >,
 	< 529, 44, 10, 35, 72, 175, 7, 528 >,
 	< 530, 44, 2, 76, 81, 112, 1, 529 >,
 	< 531, 44, 8, 0, 100, 150, 2, 530 >,
 	< 532, 44, 7, 0, 0, 119, 5, 531 >,
 	< 533, 44, 7, 44, 56, 112, 4, 532 >,
 	< 534, 44, 1, 0, 86, 124, 9, 533 >,
 	< 535, 44, 10, 0, 0, 172, 6, 534 >,
 	< 536, 44, 1, 0, 67, 200, 0, 535 >,
 	< 537, 44, 2, 0, 82, 142, 8, 536 >,
 	< 538, 44, 9, 0, 31, 161, 3, 537 >,
 	< 539, 44, 9, 0, 0, 153, 7, 538 >,
 	// order 45
 	< 540, 45, 3, 0, 31, 123, 1, -1 >,
 	< 541, 45, 7, 0, 95, 105, 2, 540 >,
 	< 542, 45, 5, 0, 0, 103, 5, 541 >,
 	< 543, 45, 3, 61, 82, 103, 4, 542 >,
 	< 544, 45, 1, 0, 0, 147, 9, 543 >,
 	< 545, 45, 6, 0, 40, 101, 6, 544 >,
 	< 546, 45, 2, 99, 95, 112, 0, 545 >,
 	< 547, 45, 7, 0, 0, 149, 8, 546 >,
 	< 548, 45, 9, 46, 0, 148, 3, 547 >,
 	< 549, 45, 3, 0, 55, 160, 7, 548 >,
 	< 550, 45, 1, 0, 67, 135, 1, 549 >,
 	< 551, 45, 6, 0, 58, 150, 2, 550 >,
 	// order 46
 	< 552, 46, 8, 98, 86, 109, 5, -1 >,
 	< 553, 46, 6, 54, 72, 181, 4, 552 >,
 	< 554, 46, 5, 0, 40, 178, 9, 553 >,
 	< 555, 46, 8, 45, 0, 188, 6, 554 >,
 	< 556, 46, 4, 98, 33, 144, 0, 555 >,
 	< 557, 46, 2, 0, 0, 200, 8, 556 >,
 	< 558, 46, 8, 83, 0, 193, 3, 557 >,
 	< 559, 46, 4, 57, 70, 126, 7, 558 >,
 	< 560, 46, 5, 47, 64, 169, 1, 559 >,
 	< 561, 46, 3, 45, 43, 120, 2, 560 >,
 	< 562, 46, 9, 59, 88, 104, 5, 561 >,
 	< 563, 46, 1, 0, 87, 161, 4, 562 >,
 	// order 47
 	< 564, 47, 1, 78, 45, 147, 9, -1 >,
 	< 565, 47, 2, 63, 73, 195, 6, 564 >,
 	< 566, 47, 6, 45, 83, 199, 0, 565 >,
 	< 567, 47, 7, 46, 53, 188, 8, 566 >,
 	< 568, 47, 5, 54, 54, 167, 3, 567 >,
 	< 569, 47, 2, 0, 57, 121, 7, 568 >,
 	< 570, 47, 9, 90, 49, 110, 1, 569 >,
 	< 571, 47, 3, 64, 0, 157, 2, 570 >,
 	< 572, 47, 9, 0, 64, 132, 5, 571 >,
 	< 573, 47, 5, 0, 57, 145, 4, 572 >,
 	< 574, 47, 6, 53, 38, 127, 9, 573 >,
 	< 575, 47, 2, 72, 0, 131, 6, 574 >,
 	// order 48
 	< 576, 48, 2, 56, 93, 199, 0, -1 >,
 	< 577, 48, 4, 98, 90, 162, 8, 576 >,
 	< 578, 48, 10, 36, 0, 187, 3, 577 >,
 	< 579, 48, 4, 34, 30, 176, 7, 578 >,
 	< 580, 48, 4, 0, 51, 115, 1, 579 >,
 	< 581, 48, 9, 0, 92, 199, 2, 580 >,
 	< 582, 48, 3, 83, 0, 174, 5, 581 >,
 	< 583, 48, 5, 0, 39, 142, 4, 582 >,
 	< 584, 48, 6, 42, 0, 103, 9, 583 >,
 	< 585, 48, 1, 0, 0, 145, 6, 584 >,
 	< 586, 48, 10, 0, 42, 174, 0, 585 >,
 	< 587, 48, 1, 56, 47, 196, 8, 586 >,
 	// order 49
 	< 588, 49, 9, 98, 77, 198, 3, -1 >,
 	< 589, 49, 4, 0, 0, 192, 7, 588 >,
 	< 590, 49, 2, 0, 71, 117, 1, 589 >,
 	< 591, 49, 6, 38, 0, 111, 2, 590 >,
 	< 592, 49, 9, 63, 84, 167, 5, 591 >,
 	< 593, 49, 6, 0, 0, 100, 4, 592 >,
 	< 594, 49, 1, 74, 0, 156, 9, 593 >,
 	< 595, 49, 7, 68, 33, 169, 6, 594 >,
 	< 596, 49, 1, 0, 86, 103, 0, 595 >,
 	< 597, 49, 10, 70, 0, 190, 8, 596 >,
 	< 598, 49, 3, 0, 0, 114, 3, 597 >,
 	< 599, 49, 1, 0, 0, 188, 7, 598 >
 };
